Solver command line: ['C:\\gurobi1002\\win64\\bin\\gurobi.bat']

Set parameter Username
Academic license - for non-commercial use only - expires 2024-08-20
Read LP format model from file C:\Users\mhafeman\AppData\Local\Temp\tmp24frgugn.pyomo.lp
Reading time = 0.01 seconds
obj: 385 rows, 360 columns, 959 nonzeros
Gurobi Optimizer version 10.0.2 build v10.0.2rc0 (win64)

CPU model: AMD Ryzen 7 3800X 8-Core Processor, instruction set [SSE2|AVX|AVX2]
Thread count: 8 physical cores, 16 logical processors, using up to 16 threads

Optimize a model with 385 rows, 360 columns and 959 nonzeros
Model fingerprint: 0x8dc56c96
Variable types: 240 continuous, 120 integer (120 binary)
Coefficient statistics:
  Matrix range     [2e-01, 1e+01]
  Objective range  [1e+01, 6e+01]
  Bounds range     [1e+00, 1e+00]
  RHS range        [1e+00, 2e+01]
Presolve removed 316 rows and 267 columns
Presolve time: 0.00s
Presolved: 69 rows, 93 columns, 184 nonzeros
Variable types: 70 continuous, 23 integer (23 binary)
Found heuristic solution: objective 245.2000000

Root relaxation: objective 3.200000e+00, 21 iterations, 0.00 seconds (0.00 work units)

    Nodes    |    Current Node    |     Objective Bounds      |     Work
 Expl Unexpl |  Obj  Depth IntInf | Incumbent    BestBd   Gap | It/Node Time

     0     0    3.20000    0    1  245.20000    3.20000  98.7%     -    0s
H    0     0                       3.2000000    3.20000  0.00%     -    0s
     0     0    3.20000    0    1    3.20000    3.20000  0.00%     -    0s

Explored 1 nodes (21 simplex iterations) in 0.01 seconds (0.00 work units)
Thread count was 16 (of 16 available processors)

Solution count 2: 3.2 245.2 

Optimal solution found (tolerance 1.00e-04)
Best objective 3.200000000000e+00, best bound 3.200000000000e+00, gap 0.0000%

